num_features = 41;
num_usage_limits = 7;
num_plans = 4;
num_addons = 1;

features = ["messagesAccess","voiceAndVideoCalls","audioAndVideoClips","slackConnect","canvas","customizableSections","appsAndServices","workflowBuilder","customWorkflowSteps","deployApps","standardWorkflows","premiumWorkflows","singleSignOn","dataCypher","twoFactorAuthentication","oAuthGoogle","complianceHIPAA","dataResidence","adminSlackEnterpriseKeys","enterpriseMobilitySecurity","auditLogs","identityProvidersGroups","customRules","exportMessages","slackConnectLostPrevention","informationBarriers","legalRetentionHold","workspaces","domainName","customSLAs","privilegesGeneralChannelManagement","privilegesPrivateChannelManagement","customUserGroups","usersManagementSCIM","extraCompatibility","support","availability","granularRoles","adminAnalyticsAPI","adminAnalyticsDashboard","messageActivityAnalytics"];
usage_limits = ["useMessagesAccess","useAppsAndServices","useVoiceAndVideoCalls","useWorkspaces","useWorkflowsPremium","useWorkflows","useSlackConnect"];
plans = ["FREE","PRO","BUSINESS_PLUS","ENTERPRISE_GRID"];
addons = ["slackEnterpriseKeys"];

plans_prices = [0,8.75,15,150];
addons_prices = [100];

linked_features = array2d(USAGE_LIMITS, FEATURES, [
    % useMessagesAccess
    1,0,0,0,0,0,0,0,0,0,0,0,0,0,0,0,0,0,0,0,0,0,0,0,0,0,0,0,0,0,0,0,0,0,0,0,0,0,0,0,0,
    % useAppsAndServices
    0,0,0,0,0,0,1,0,0,0,0,0,0,0,0,0,0,0,0,0,0,0,0,0,0,0,0,0,0,0,0,0,0,0,0,0,0,0,0,0,0,
    % useVoiceAndVideoCalls
    0,1,0,0,0,0,0,0,0,0,0,0,0,0,0,0,0,0,0,0,0,0,0,0,0,0,0,0,0,0,0,0,0,0,0,0,0,0,0,0,0,
    % useWorkspaces
    0,0,0,0,0,0,0,0,0,0,0,0,0,0,0,0,0,0,0,0,0,0,0,0,0,0,0,1,0,0,0,0,0,0,0,0,0,0,0,0,0,
    % useWorkflowsPremium
    0,0,0,0,0,0,0,0,0,0,0,1,0,0,0,0,0,0,0,0,0,0,0,0,0,0,0,0,0,0,0,0,0,0,0,0,0,0,0,0,0,
    % useWorkflows
    0,0,0,0,0,0,0,0,0,0,1,1,0,0,0,0,0,0,0,0,0,0,0,0,0,0,0,0,0,0,0,0,0,0,0,0,0,0,0,0,0,
    % useSlackConnect
    0,0,0,1,0,0,0,0,0,0,0,0,0,0,0,0,0,0,0,0,0,0,0,0,0,0,0,0,0,0,0,0,0,0,0,0,0,0,0,0,0
]);

plans_features = array2d(PLANS, FEATURES, [
    % FREE
    1,1,1,1,1,0,1,0,0,0,0,0,0,1,1,0,0,0,0,0,0,0,0,0,0,0,0,1,0,0,1,0,0,0,0,1,0,0,0,0,0,
    % PRO
    1,1,1,1,1,1,1,1,1,1,1,1,0,1,1,1,0,0,0,0,0,0,1,0,0,0,0,1,0,0,1,0,1,0,0,1,0,0,0,1,0,
    % BUSINESS_PLUS
    1,1,1,1,1,1,1,1,1,1,1,1,1,1,1,1,0,1,0,0,0,0,1,1,0,0,0,1,0,0,1,1,1,1,0,1,1,0,1,1,1,
    % ENTERPRISE_GRID
    1,1,1,1,1,1,1,1,1,1,1,1,1,1,1,1,1,0,0,1,1,1,0,0,1,1,1,1,1,1,1,1,1,1,1,1,1,1,1,1,1
]);
plans_usage_limits = array2d(PLANS, USAGE_LIMITS, [
    % FREE
    90,10,1,1,1000,100000000,1,
    % PRO
    100000000,100000000,50,1,1000,100000000,100000000,
    % BUSINESS_PLUS
    100000000,100000000,50,1,2000,100000000,100000000,
    % ENTERPRISE_GRID
    100000000,100000000,50,1,5000,100000000,100000000
]);

addons_features = array2d(ADDONS, FEATURES, [
    % slackEnterpriseKeys
    0,0,0,0,0,0,0,0,0,0,0,0,0,0,0,0,0,0,1,0,0,0,0,0,0,0,0,0,0,0,0,0,0,0,0,0,0,0,0,0,0
]);
addons_usage_limits = array2d(ADDONS, USAGE_LIMITS, [
    % slackEnterpriseKeys
    0,0,0,0,0,0,0
]);
addons_usage_limits_extensions = array2d(ADDONS, USAGE_LIMITS, [
    % slackEnterpriseKeys
    0,0,0,0,0,0,0
]);
addons_available_for = array2d(ADDONS, PLANS, [
    % slackEnterpriseKeys
    0,0,0,1
]);
addons_depends_on = array2d(ADDONS, ADDONS, [
    % slackEnterpriseKeys
    0
]);
